n = 20; m = 10; 


44    52    14    2    74    31    25    30    34    69    81    26    27    93    74    15    6    14    48    65
49    71    25    20    36    62    12    8    6    73    38    52    25    64    24    9    40    12    35    65
60    57    14    54    60    22    43    40    3    47    48    40    36    44    70    17    23    16    73    50
78    95    32    32    7    62    48    17    96    94    47    33    99    62    93    58    32    41    7    16
7    90    35    58    30    9    24    74    95    27    67    37    25    1    63    75    2    28    25    35
92    37    12    73    56    24    52    76    72    64    83    51    11    9    94    10    50    48    68    2
20    33    73    20    65    28    53    6    67    69    32    25    26    15    20    16    1    20    29    13
60    57    14    54    60    22    43    40    3    47    48    40    36    44    70    17    23    16    73    50
47    40    15    8    20    6    10    5    10    44    37    27    31    16    45    14    10    37    47    19         
60    57    14    54    60    22    43    40    3    47    48    40    36    44    70    17    23    16    73    50
  
